problems/csplib-prob015/SchursLemma-models/noch/O2/lingeling/model_1_4-3-12-solution000001.solution
language Essence 1.3

letting boxes be partition({1, 10}, {2, 3, 4, 11, 12}, {5, 6, 7, 8, 9})
